NAME: cuum330.tsp
TYPE: TSP
COMMENT: User-generated TSP file
DIMENSION: 330
EDGE_WEIGHT_TYPE: EUC_2D
NODE_COORD_SECTION
1 85.0 301.0
2 326.0 162.0
3 310.0 61.0
4 57.0 10.0
5 66.0 276.0
6 59.0 213.0
7 109.0 112.0
8 305.0 228.0
9 2.0 236.0
10 329.0 162.0
11 33.0 258.0
12 319.0 311.0
13 204.0 6.0
14 210.0 231.0
15 153.0 104.0
16 139.0 223.0
17 136.0 123.0
18 96.0 225.0
19 325.0 223.0
20 3.0 283.0
21 239.0 287.0
22 125.0 262.0
23 300.0 219.0
24 90.0 285.0
25 219.0 102.0
26 116.0 27.0
27 243.0 311.0
28 194.0 268.0
29 25.0 255.0
30 114.0 82.0
31 312.0 122.0
32 3.0 265.0
33 154.0 102.0
34 107.0 69.0
35 237.0 70.0
36 248.0 306.0
37 325.0 64.0
38 71.0 114.0
39 49.0 180.0
40 21.0 43.0
41 301.0 167.0
42 170.0 96.0
43 203.0 214.0
44 326.0 47.0
45 261.0 320.0
46 211.0 108.0
47 277.0 220.0
48 144.0 227.0
49 162.0 39.0
50 78.0 105.0
51 278.0 277.0
52 180.0 294.0
53 74.0 8.0
54 91.0 270.0
55 282.0 151.0
56 319.0 226.0
57 295.0 25.0
58 206.0 60.0
59 176.0 47.0
60 73.0 171.0
61 141.0 167.0
62 284.0 188.0
63 28.0 16.0
64 277.0 141.0
65 124.0 283.0
66 125.0 301.0
67 140.0 187.0
68 129.0 12.0
69 252.0 157.0
70 226.0 150.0
71 73.0 153.0
72 44.0 313.0
73 27.0 194.0
74 179.0 9.0
75 292.0 156.0
76 328.0 112.0
77 249.0 112.0
78 227.0 56.0
79 127.0 39.0
80 176.0 104.0
81 326.0 292.0
82 254.0 41.0
83 241.0 167.0
84 290.0 270.0
85 16.0 160.0
86 70.0 48.0
87 153.0 113.0
88 138.0 280.0
89 200.0 275.0
90 27.0 238.0
91 214.0 268.0
92 267.0 265.0
93 16.0 140.0
94 66.0 46.0
95 277.0 77.0
96 127.0 47.0
97 87.0 153.0
98 147.0 84.0
99 292.0 306.0
100 183.0 126.0
101 209.0 122.0
102 319.0 22.0
103 9.0 146.0
104 248.0 219.0
105 297.0 220.0
106 312.0 52.0
107 227.0 172.0
108 57.0 14.0
109 172.0 315.0
110 313.0 203.0
111 247.0 12.0
112 259.0 296.0
113 252.0 5.0
114 50.0 128.0
115 171.0 225.0
116 311.0 147.0
117 244.0 19.0
118 118.0 67.0
119 97.0 285.0
120 136.0 328.0
121 87.0 263.0
122 39.0 8.0
123 106.0 237.0
124 166.0 200.0
125 264.0 185.0
126 299.0 215.0
127 226.0 326.0
128 112.0 254.0
129 226.0 167.0
130 42.0 247.0
131 187.0 195.0
132 14.0 327.0
133 131.0 308.0
134 325.0 307.0
135 225.0 74.0
136 293.0 91.0
137 158.0 140.0
138 177.0 57.0
139 313.0 142.0
140 305.0 104.0
141 207.0 135.0
142 166.0 168.0
143 71.0 20.0
144 259.0 186.0
145 272.0 153.0
146 141.0 8.0
147 183.0 310.0
148 231.0 17.0
149 142.0 266.0
150 228.0 137.0
151 155.0 8.0
152 287.0 211.0
153 165.0 221.0
154 147.0 108.0
155 42.0 209.0
156 40.0 216.0
157 114.0 1.0
158 60.0 270.0
159 159.0 307.0
160 17.0 184.0
161 321.0 199.0
162 37.0 144.0
163 270.0 229.0
164 122.0 120.0
165 317.0 324.0
166 210.0 125.0
167 226.0 67.0
168 59.0 23.0
169 40.0 119.0
170 179.0 13.0
171 80.0 219.0
172 137.0 239.0
173 73.0 127.0
174 124.0 81.0
175 297.0 320.0
176 185.0 157.0
177 106.0 225.0
178 129.0 269.0
179 31.0 33.0
180 302.0 215.0
181 147.0 38.0
182 317.0 151.0
183 161.0 82.0
184 10.0 192.0
185 316.0 271.0
186 202.0 1.0
187 47.0 329.0
188 113.0 306.0
189 191.0 223.0
190 200.0 329.0
191 67.0 246.0
192 195.0 94.0
193 79.0 73.0
194 211.0 267.0
195 253.0 177.0
196 219.0 89.0
197 11.0 133.0
198 39.0 18.0
199 98.0 34.0
200 141.0 93.0
201 292.0 310.0
202 47.0 130.0
203 249.0 277.0
204 24.0 43.0
205 106.0 115.0
206 21.0 32.0
207 142.0 223.0
208 190.0 211.0
209 266.0 74.0
210 276.0 280.0
211 293.0 89.0
212 100.0 81.0
213 185.0 114.0
214 201.0 38.0
215 138.0 30.0
216 237.0 239.0
217 112.0 90.0
218 178.0 12.0
219 159.0 70.0
220 189.0 318.0
221 223.0 118.0
222 283.0 300.0
223 328.0 38.0
224 64.0 56.0
225 176.0 123.0
226 300.0 313.0
227 65.0 278.0
228 299.0 298.0
229 321.0 43.0
230 275.0 95.0
231 65.0 312.0
232 199.0 170.0
233 182.0 106.0
234 320.0 302.0
235 26.0 233.0
236 56.0 196.0
237 239.0 207.0
238 264.0 236.0
239 115.0 70.0
240 166.0 3.0
241 23.0 208.0
242 122.0 7.0
243 10.0 220.0
244 284.0 237.0
245 241.0 192.0
246 183.0 62.0
247 250.0 289.0
248 296.0 56.0
249 157.0 38.0
250 117.0 195.0
251 33.0 119.0
252 56.0 283.0
253 283.0 130.0
254 35.0 125.0
255 308.0 83.0
256 52.0 261.0
257 226.0 24.0
258 198.0 165.0
259 98.0 237.0
260 33.0 42.0
261 166.0 245.0
262 33.0 237.0
263 225.0 161.0
264 231.0 95.0
265 326.0 56.0
266 220.0 34.0
267 30.0 301.0
268 29.0 139.0
269 87.0 216.0
270 273.0 76.0
271 8.0 192.0
272 300.0 227.0
273 84.0 283.0
274 237.0 128.0
275 259.0 48.0
276 235.0 182.0
277 171.0 154.0
278 230.0 196.0
279 293.0 234.0
280 200.0 269.0
281 47.0 118.0
282 52.0 323.0
283 34.0 198.0
284 169.0 204.0
285 284.0 322.0
286 29.0 16.0
287 146.0 230.0
288 259.0 47.0
289 126.0 143.0
290 68.0 105.0
291 10.0 274.0
292 21.0 256.0
293 198.0 294.0
294 275.0 296.0
295 194.0 185.0
296 227.0 295.0
297 229.0 235.0
298 239.0 117.0
299 191.0 293.0
300 37.0 68.0
301 185.0 66.0
302 167.0 89.0
303 77.0 293.0
304 308.0 323.0
305 80.0 203.0
306 200.0 141.0
307 312.0 89.0
308 191.0 122.0
309 10.0 270.0
310 20.0 2.0
311 163.0 49.0
312 26.0 52.0
313 255.0 33.0
314 273.0 73.0
315 273.0 166.0
316 70.0 25.0
317 1.0 49.0
318 211.0 290.0
319 292.0 290.0
320 79.0 214.0
321 221.0 114.0
322 137.0 186.0
323 286.0 17.0
324 19.0 114.0
325 276.0 246.0
326 98.0 19.0
327 143.0 2.0
328 280.0 241.0
329 7.0 234.0
330 162.0 52.0
EOF





